40
1 0 7
2 0 3
2 1 2
3 0 2
3 1 3
3 2 3
4 0 3
4 2 5
4 3 3
5 0 2
5 1 7
5 2 1
5 3 1
5 4 8
6 0 7
6 2 2
6 3 5
6 4 5
6 5 10
7 0 2
7 1 9
7 2 8
7 4 7
7 5 7
7 6 7
8 0 3
8 1 7
8 2 10
8 3 10
8 4 1
8 5 2
8 6 9
8 7 3
9 0 3
9 1 4
9 2 8
9 3 4
9 4 9
9 5 6
9 6 3
9 7 1
9 8 1
10 1 3
10 2 8
10 5 5
10 6 1
10 7 3
10 8 10
10 9 10
11 0 5
11 1 6
11 2 4
11 4 10
11 6 1
11 8 10
11 9 5
11 10 2
12 0 3
12 1 1
12 2 9
12 3 8
12 4 4
12 5 8
12 6 10
12 7 5
12 8 6
12 9 8
12 10 5
12 11 5
13 0 8
13 1 8
13 3 8
13 4 1
13 5 1
13 6 5
13 7 7
13 8 6
13 10 10
13 11 6
13 12 9
14 0 7
14 2 5
14 3 1
14 4 4
14 5 1
14 6 2
14 7 10
14 8 1
14 9 6
14 10 6
14 11 9
14 12 3
14 13 3
15 0 3
15 1 3
15 2 7
15 3 1
15 4 6
15 5 5
15 6 8
15 7 4
15 9 1
15 11 8
15 12 6
15 14 6
16 0 6
16 1 10
16 2 8
16 3 1
16 4 6
16 6 7
16 7 10
16 9 6
16 10 8
16 12 9
16 13 8
16 14 5
16 15 9
17 0 3
17 2 8
17 3 2
17 5 9
17 6 4
17 7 9
17 8 5
17 9 9
17 10 7
17 11 10
17 12 2
17 13 5
17 14 2
17 15 6
17 16 9
18 0 1
18 1 1
18 2 3
18 3 10
18 4 9
18 5 10
18 6 1
18 7 9
18 8 5
18 9 8
18 10 9
18 11 1
18 12 8
18 13 1
18 14 9
18 15 10
18 16 9
18 17 5
19 0 6
19 1 2
19 2 9
19 4 1
19 5 8
19 6 2
19 7 4
19 8 2
19 9 1
19 10 5
19 11 10
19 12 2
19 13 9
19 14 2
19 15 2
19 16 6
19 17 4
19 18 10
20 0 5
20 1 8
20 2 9
20 3 6
20 4 10
20 5 7
20 6 2
20 7 7
20 8 9
20 9 1
20 11 7
20 12 8
20 13 2
20 14 7
20 15 6
20 16 9
20 17 7
20 18 4
20 19 8
21 0 10
21 1 7
21 2 2
21 3 7
21 4 10
21 5 3
21 6 7
21 7 4
21 8 2
21 9 9
21 10 7
21 11 4
21 12 10
21 13 4
21 15 10
21 16 8
21 17 3
21 18 6
21 19 2
21 20 1
22 0 1
22 1 5
22 2 4
22 5 1
22 6 4
22 8 9
22 9 1
22 10 5
22 11 6
22 12 6
22 13 2
22 14 1
22 15 10
22 16 7
22 17 6
22 18 3
22 19 8
23 0 5
23 1 1
23 2 8
23 3 7
23 5 7
23 6 1
23 7 2
23 8 8
23 9 10
23 10 7
23 11 10
23 12 1
23 13 8
23 14 6
23 15 10
23 16 8
23 17 2
23 18 8
23 19 2
23 20 8
23 21 2
23 22 2
24 0 9
24 2 8
24 3 6
24 4 10
24 5 6
24 6 10
24 7 1
24 8 2
24 9 4
24 10 6
24 11 2
24 12 2
24 13 5
24 14 5
24 15 1
24 16 2
24 17 1
24 18 9
24 19 9
24 20 4
24 21 8
24 22 3
24 23 9
25 0 1
25 1 5
25 2 3
25 3 7
25 4 2
25 5 10
25 6 1
25 7 3
25 8 9
25 9 9
25 10 2
25 11 1
25 12 9
25 13 10
25 14 7
25 16 2
25 17 1
25 18 6
25 19 6
25 20 8
25 21 9
25 23 2
25 24 2
26 0 7
26 1 10
26 3 7
26 4 4
26 5 8
26 6 8
26 9 10
26 10 7
26 11 5
26 13 2
26 14 7
26 15 9
26 16 2
26 17 9
26 18 1
26 19 5
26 21 9
26 22 8
26 23 4
26 24 9
27 0 4
27 1 1
27 2 3
27 3 7
27 4 10
27 5 9
27 7 8
27 8 6
27 9 10
27 10 9
27 11 2
27 12 3
27 13 7
27 14 2
27 15 2
27 16 5
27 17 7
27 18 8
27 19 3
27 20 1
27 21 2
27 22 10
27 23 10
27 24 4
28 0 7
28 1 6
28 2 6
28 3 3
28 4 3
28 5 10
28 6 9
28 7 10
28 9 3
28 10 1
28 11 8
28 12 2
28 13 7
28 14 10
28 15 5
28 16 3
28 17 1
28 18 10
28 19 5
28 20 1
28 21 2
28 22 5
28 23 7
28 24 8
28 25 7
28 26 6
28 27 2
29 0 3
29 1 8
29 2 1
29 3 6
29 4 8
29 5 4
29 6 5
29 7 7
29 8 4
29 9 10
29 10 10
29 11 3
29 12 4
29 13 10
29 14 4
29 15 2
29 16 10
29 17 2
29 18 1
29 19 8
29 20 10
29 21 8
29 23 4
29 27 7
29 28 5
30 0 7
30 1 6
30 2 10
30 3 8
30 4 4
30 5 9
30 6 10
30 7 9
30 8 5
30 9 7
30 11 4
30 12 7
30 13 7
30 14 9
30 15 4
30 16 2
30 17 4
30 18 8
30 19 6
30 20 2
30 21 1
30 22 3
30 23 5
30 24 6
30 25 5
30 26 7
30 27 9
30 28 9
30 29 1
31 0 9
31 1 10
31 2 2
31 3 6
31 4 7
31 5 4
31 6 3
31 7 7
31 8 5
31 9 6
31 10 9
31 12 2
31 13 9
31 15 6
31 16 4
31 17 5
31 18 9
31 19 5
31 20 2
31 21 10
31 22 9
31 23 4
31 24 6
31 25 5
31 26 5
31 27 6
31 28 5
31 29 10
31 30 3
32 0 3
32 1 6
32 3 3
32 4 10
32 5 8
32 6 5
32 7 8
32 8 4
32 9 4
32 11 1
32 12 1
32 13 9
32 14 3
32 15 3
32 16 1
32 17 10
32 18 3
32 20 8
32 21 4
32 22 4
32 23 2
32 24 4
32 27 4
32 28 4
32 29 1
32 30 7
32 31 2
33 0 6
33 1 5
33 2 7
33 3 6
33 4 4
33 5 5
33 6 6
33 7 10
33 8 7
33 9 2
33 11 5
33 12 9
33 13 10
33 14 3
33 15 2
33 16 10
33 17 7
33 18 3
33 20 7
33 21 3
33 22 7
33 23 9
33 24 1
33 26 3
33 27 4
33 28 5
33 30 7
33 31 1
33 32 8
34 0 1
34 1 5
34 2 9
34 3 8
34 5 5
34 8 2
34 9 4
34 10 7
34 11 6
34 12 9
34 13 5
34 14 8
34 15 6
34 17 10
34 18 1
34 19 3
34 20 3
34 21 8
34 22 10
34 23 8
34 24 5
34 25 10
34 26 6
34 27 2
34 28 8
34 30 9
34 31 8
34 32 10
34 33 6
35 0 7
35 1 4
35 2 3
35 3 7
35 4 3
35 5 5
35 6 4
35 7 6
35 8 1
35 9 7
35 10 3
35 11 5
35 12 1
35 13 10
35 14 10
35 15 2
35 16 4
35 17 1
35 18 10
35 19 9
35 20 7
35 21 9
35 22 10
35 23 10
35 24 6
35 25 7
35 26 5
35 27 5
35 28 10
35 29 2
35 30 5
35 31 4
35 32 5
35 33 1
35 34 5
36 0 5
36 1 7
36 2 5
36 3 7
36 4 2
36 5 5
36 6 1
36 7 2
36 8 2
36 9 8
36 10 9
36 11 1
36 12 2
36 13 1
36 14 6
36 15 6
36 16 4
36 17 9
36 18 10
36 19 6
36 20 8
36 21 5
36 23 4
36 24 2
36 25 3
36 26 10
36 27 5
36 28 10
36 29 1
36 30 7
36 31 7
36 32 8
36 33 1
36 34 4
36 35 5
37 0 6
37 1 7
37 2 4
37 3 4
37 4 2
37 5 3
37 6 8
37 7 7
37 8 6
37 9 9
37 10 9
37 11 4
37 12 1
37 13 6
37 14 9
37 15 4
37 16 3
37 18 9
37 19 6
37 20 2
37 21 1
37 22 3
37 23 6
37 24 9
37 25 3
37 26 1
37 28 5
37 29 4
37 30 6
37 31 10
37 32 6
37 34 6
37 35 6
37 36 9
38 0 9
38 1 5
38 2 1
38 3 3
38 4 4
38 5 4
38 7 6
38 8 5
38 10 5
38 11 5
38 12 8
38 13 3
38 14 2
38 15 3
38 16 4
38 17 4
38 18 2
38 20 9
38 21 5
38 22 4
38 23 9
38 25 7
38 26 4
38 27 1
38 28 1
38 29 9
38 30 8
38 31 3
38 32 5
38 33 10
38 34 6
38 35 5
38 36 1
38 37 4
39 0 3
39 1 1
39 2 10
39 3 7
39 4 5
39 5 4
39 6 5
39 7 8
39 8 8
39 9 2
39 10 7
39 12 9
39 13 8
39 14 3
39 15 10
39 16 3
39 17 1
39 18 2
39 19 5
39 20 3
39 21 5
39 22 3
39 23 4
39 24 9
39 25 4
39 26 7
39 27 4
39 28 4
39 29 7
39 30 9
39 31 7
39 32 8
39 33 3
39 34 10
39 35 1
39 36 8
39 37 6
39 38 4
